language ESSENCE' 1.0

letting n_classes be 24
letting n_options be 5
letting n_cars be 200
letting quantity_Function1D be [58, 2, 15, 2, 6, 4, 1, 4, 21, 1, 1, 3, 15, 2, 9, 19, 9, 6, 4, 3, 2, 1, 9, 3; int(1..24)]
letting usage_RelationAsMatrix be
        [[false, true, false, false, false; int(1..5)], [false, false, false, true, true; int(1..5)],
         [false, false, false, false, true; int(1..5)], [true, true, true, true, false; int(1..5)],
         [false, true, false, false, true; int(1..5)], [false, true, true, true, false; int(1..5)],
         [true, false, true, false, true; int(1..5)], [true, true, false, true, false; int(1..5)],
         [false, false, false, true, false; int(1..5)], [true, true, false, true, true; int(1..5)],
         [false, false, true, true, true; int(1..5)], [true, false, true, false, false; int(1..5)],
         [false, false, true, false, false; int(1..5)], [true, true, false, false, true; int(1..5)],
         [true, true, false, false, false; int(1..5)], [true, false, false, false, false; int(1..5)],
         [false, true, true, false, false; int(1..5)], [true, true, true, false, false; int(1..5)],
         [true, false, false, true, false; int(1..5)], [false, false, true, true, false; int(1..5)],
         [true, false, true, true, false; int(1..5)], [false, true, false, true, true; int(1..5)],
         [false, true, false, false, false; int(1..5)], [true, false, false, false, true; int(1..5)];
             int(1..24)]
$ Visualisation for usage_RelationAsMatrix
$ _ T _ _ _
$ _ _ _ T T
$ _ _ _ _ T
$ T T T T _
$ _ T _ _ T
$ _ T T T _
$ T _ T _ T
$ T T _ T _
$ _ _ _ T _
$ T T _ T T
$ _ _ T T T
$ T _ T _ _
$ _ _ T _ _
$ T T _ _ T
$ T T _ _ _
$ T _ _ _ _
$ _ T T _ _
$ T T T _ _
$ T _ _ T _
$ _ _ T T _
$ T _ T T _
$ _ T _ T T
$ _ T _ _ _
$ T _ _ _ T

letting blksize_Function1D be [2, 3, 3, 5, 5; int(1..5)]
letting maxcars_Function1D be [1, 2, 1, 2, 1; int(1..5)]
letting fin1 be 24
letting fin2 be 58
letting fin3 be 5
letting fin4 be 2
letting fin5 be 5
letting fin6 be 5
letting fin7 be 54
